p cnf 75 264
1 2 3 4 5 13 0
1 2 3 4 -5 14 0
1 2 3 -4 5 24 0
1 2 3 -4 -5 10 0
1 2 -3 4 5 21 0
1 2 -3 4 -5 25 0
1 2 -3 -4 5 6 0
1 2 -3 -4 -5 26 0
1 -2 3 4 5 8 0
1 -2 3 4 -5 16 0
1 -2 3 -4 5 17 0
1 -2 3 -4 -5 18 0
1 -2 -3 4 5 15 0
1 -2 -3 4 -5 11 0
1 -2 -3 -4 5 7 0
1 -2 -3 -4 -5 22 0
-1 2 3 4 5 23 0
-1 2 3 4 -5 12 0
-1 2 3 -4 5 19 0
-1 2 3 -4 -5 13 0
-1 2 -3 4 5 9 0
-1 2 -3 4 -5 20 0
27 28 29 30 1 2 3 4 5 31 0
27 28 29 30 1 2 3 4 -5 32 0
27 28 29 30 1 2 3 -4 5 32 0
27 28 29 30 1 2 3 -4 -5 32 0
27 28 29 30 1 2 -3 4 5 32 0
27 28 29 30 1 2 -3 4 -5 32 0
27 28 29 30 1 2 -3 -4 5 32 0
27 28 29 30 1 2 -3 -4 -5 32 0
27 28 29 30 1 -2 3 4 5 32 0
27 28 29 30 1 -2 3 4 -5 32 0
27 28 29 30 1 -2 3 -4 5 32 0
27 28 29 30 1 -2 3 -4 -5 32 0
27 28 29 30 1 -2 -3 4 5 32 0
27 28 29 30 1 -2 -3 4 -5 32 0
27 28 29 30 1 -2 -3 -4 5 32 0
27 28 29 30 1 -2 -3 -4 -5 32 0
27 28 29 30 -1 2 3 4 5 32 0
27 28 29 30 -1 2 3 4 -5 32 0
27 28 29 30 -1 2 3 -4 5 32 0
27 28 29 30 -1 2 3 -4 -5 32 0
27 28 29 30 -1 2 -3 4 5 32 0
27 28 29 30 -1 2 -3 4 -5 32 0
27 28 29 -30 1 2 3 4 5 33 0
27 28 29 -30 1 2 3 4 -5 34 0
27 28 29 -30 1 2 3 -4 5 35 0
27 28 29 -30 1 2 3 -4 -5 48 0
27 28 29 -30 1 2 -3 4 5 32 0
27 28 29 -30 1 2 -3 4 -5 32 0
27 28 29 -30 1 2 -3 -4 5 32 0
27 28 29 -30 1 2 -3 -4 -5 32 0
27 28 29 -30 1 -2 3 4 5 32 0
27 28 29 -30 1 -2 3 4 -5 32 0
27 28 29 -30 1 -2 3 -4 5 32 0
27 28 29 -30 1 -2 3 -4 -5 32 0
27 28 29 -30 1 -2 -3 4 5 32 0
27 28 29 -30 1 -2 -3 4 -5 32 0
27 28 29 -30 1 -2 -3 -4 5 32 0
27 28 29 -30 1 -2 -3 -4 -5 32 0
27 28 29 -30 -1 2 3 4 5 32 0
27 28 29 -30 -1 2 3 4 -5 32 0
27 28 29 -30 -1 2 3 -4 5 32 0
27 28 29 -30 -1 2 3 -4 -5 32 0
27 28 29 -30 -1 2 -3 4 5 32 0
27 28 29 -30 -1 2 -3 4 -5 32 0
27 28 -29 30 1 2 3 4 5 32 0
27 28 -29 30 1 2 3 4 -5 72 0
27 28 -29 30 1 2 3 -4 5 36 0
27 28 -29 30 1 2 3 -4 -5 37 0
27 28 -29 30 1 2 -3 4 5 38 0
27 28 -29 30 1 2 -3 4 -5 39 0
27 28 -29 30 1 2 -3 -4 5 54 0
27 28 -29 30 1 2 -3 -4 -5 32 0
27 28 -29 30 1 -2 3 4 5 32 0
27 28 -29 30 1 -2 3 4 -5 67 0
27 28 -29 30 1 -2 3 -4 5 32 0
27 28 -29 30 1 -2 3 -4 -5 32 0
27 28 -29 30 1 -2 -3 4 5 32 0
27 28 -29 30 1 -2 -3 4 -5 32 0
27 28 -29 30 1 -2 -3 -4 5 32 0
27 28 -29 30 1 -2 -3 -4 -5 32 0
27 28 -29 30 -1 2 3 4 5 32 0
27 28 -29 30 -1 2 3 4 -5 32 0
27 28 -29 30 -1 2 3 -4 5 32 0
27 28 -29 30 -1 2 3 -4 -5 32 0
27 28 -29 30 -1 2 -3 4 5 32 0
27 28 -29 30 -1 2 -3 4 -5 32 0
27 28 -29 -30 1 2 3 4 5 32 0
27 28 -29 -30 1 2 3 4 -5 32 0
27 28 -29 -30 1 2 3 -4 5 32 0
27 28 -29 -30 1 2 3 -4 -5 65 0
27 28 -29 -30 1 2 -3 4 5 58 0
27 28 -29 -30 1 2 -3 4 -5 40 0
27 28 -29 -30 1 2 -3 -4 5 47 0
27 28 -29 -30 1 2 -3 -4 -5 55 0
27 28 -29 -30 1 -2 3 4 5 75 0
27 28 -29 -30 1 -2 3 4 -5 60 0
27 28 -29 -30 1 -2 3 -4 5 49 0
27 28 -29 -30 1 -2 3 -4 -5 32 0
27 28 -29 -30 1 -2 -3 4 5 32 0
27 28 -29 -30 1 -2 -3 4 -5 32 0
27 28 -29 -30 1 -2 -3 -4 5 32 0
27 28 -29 -30 1 -2 -3 -4 -5 32 0
27 28 -29 -30 -1 2 3 4 5 32 0
27 28 -29 -30 -1 2 3 4 -5 32 0
27 28 -29 -30 -1 2 3 -4 5 32 0
27 28 -29 -30 -1 2 3 -4 -5 32 0
27 28 -29 -30 -1 2 -3 4 5 32 0
27 28 -29 -30 -1 2 -3 4 -5 32 0
27 -28 29 30 1 2 3 4 5 32 0
27 -28 29 30 1 2 3 4 -5 32 0
27 -28 29 30 1 2 3 -4 5 32 0
27 -28 29 30 1 2 3 -4 -5 32 0
27 -28 29 30 1 2 -3 4 5 32 0
27 -28 29 30 1 2 -3 4 -5 32 0
27 -28 29 30 1 2 -3 -4 5 74 0
27 -28 29 30 1 2 -3 -4 -5 50 0
27 -28 29 30 1 -2 3 4 5 41 0
27 -28 29 30 1 -2 3 4 -5 52 0
27 -28 29 30 1 -2 3 -4 5 56 0
27 -28 29 30 1 -2 3 -4 -5 66 0
27 -28 29 30 1 -2 -3 4 5 51 0
27 -28 29 30 1 -2 -3 4 -5 32 0
27 -28 29 30 1 -2 -3 -4 5 32 0
27 -28 29 30 1 -2 -3 -4 -5 32 0
27 -28 29 30 -1 2 3 4 5 32 0
27 -28 29 30 -1 2 3 4 -5 32 0
27 -28 29 30 -1 2 3 -4 5 32 0
27 -28 29 30 -1 2 3 -4 -5 32 0
27 -28 29 30 -1 2 -3 4 5 32 0
27 -28 29 30 -1 2 -3 4 -5 32 0
27 -28 29 -30 1 2 3 4 5 32 0
27 -28 29 -30 1 2 3 4 -5 32 0
27 -28 29 -30 1 2 3 -4 5 32 0
27 -28 29 -30 1 2 3 -4 -5 32 0
27 -28 29 -30 1 2 -3 4 5 32 0
27 -28 29 -30 1 2 -3 4 -5 32 0
27 -28 29 -30 1 2 -3 -4 5 32 0
27 -28 29 -30 1 2 -3 -4 -5 32 0
27 -28 29 -30 1 -2 3 4 5 32 0
27 -28 29 -30 1 -2 3 4 -5 32 0
27 -28 29 -30 1 -2 3 -4 5 42 0
27 -28 29 -30 1 -2 3 -4 -5 53 0
27 -28 29 -30 1 -2 -3 4 5 68 0
27 -28 29 -30 1 -2 -3 4 -5 62 0
27 -28 29 -30 1 -2 -3 -4 5 73 0
27 -28 29 -30 1 -2 -3 -4 -5 64 0
27 -28 29 -30 -1 2 3 4 5 69 0
27 -28 29 -30 -1 2 3 4 -5 32 0
27 -28 29 -30 -1 2 3 -4 5 32 0
27 -28 29 -30 -1 2 3 -4 -5 32 0
27 -28 29 -30 -1 2 -3 4 5 32 0
27 -28 29 -30 -1 2 -3 4 -5 32 0
27 -28 -29 30 1 2 3 4 5 32 0
27 -28 -29 30 1 2 3 4 -5 32 0
27 -28 -29 30 1 2 3 -4 5 32 0
27 -28 -29 30 1 2 3 -4 -5 32 0
27 -28 -29 30 1 2 -3 4 5 32 0
27 -28 -29 30 1 2 -3 4 -5 32 0
27 -28 -29 30 1 2 -3 -4 5 32 0
27 -28 -29 30 1 2 -3 -4 -5 32 0
27 -28 -29 30 1 -2 3 4 5 32 0
27 -28 -29 30 1 -2 3 4 -5 32 0
27 -28 -29 30 1 -2 3 -4 5 32 0
27 -28 -29 30 1 -2 3 -4 -5 32 0
27 -28 -29 30 1 -2 -3 4 5 32 0
27 -28 -29 30 1 -2 -3 4 -5 71 0
27 -28 -29 30 1 -2 -3 -4 5 46 0
27 -28 -29 30 1 -2 -3 -4 -5 57 0
27 -28 -29 30 -1 2 3 4 5 59 0
27 -28 -29 30 -1 2 3 4 -5 43 0
27 -28 -29 30 -1 2 3 -4 5 32 0
27 -28 -29 30 -1 2 3 -4 -5 32 0
27 -28 -29 30 -1 2 -3 4 5 32 0
27 -28 -29 30 -1 2 -3 4 -5 32 0
27 -28 -29 -30 1 2 3 4 5 32 0
27 -28 -29 -30 1 2 3 4 -5 32 0
27 -28 -29 -30 1 2 3 -4 5 32 0
27 -28 -29 -30 1 2 3 -4 -5 32 0
27 -28 -29 -30 1 2 -3 4 5 32 0
27 -28 -29 -30 1 2 -3 4 -5 32 0
27 -28 -29 -30 1 2 -3 -4 5 32 0
27 -28 -29 -30 1 2 -3 -4 -5 32 0
27 -28 -29 -30 1 -2 3 4 5 32 0
27 -28 -29 -30 1 -2 3 4 -5 32 0
27 -28 -29 -30 1 -2 3 -4 5 32 0
27 -28 -29 -30 1 -2 3 -4 -5 32 0
27 -28 -29 -30 1 -2 -3 4 5 32 0
27 -28 -29 -30 1 -2 -3 4 -5 32 0
27 -28 -29 -30 1 -2 -3 -4 5 32 0
27 -28 -29 -30 1 -2 -3 -4 -5 32 0
27 -28 -29 -30 -1 2 3 4 5 63 0
27 -28 -29 -30 -1 2 3 4 -5 44 0
27 -28 -29 -30 -1 2 3 -4 5 45 0
27 -28 -29 -30 -1 2 3 -4 -5 61 0
27 -28 -29 -30 -1 2 -3 4 5 32 0
27 -28 -29 -30 -1 2 -3 4 -5 32 0
-27 28 29 30 1 2 3 4 5 32 0
-27 28 29 30 1 2 3 4 -5 32 0
-27 28 29 30 1 2 3 -4 5 32 0
-27 28 29 30 1 2 3 -4 -5 32 0
-27 28 29 30 1 2 -3 4 5 32 0
-27 28 29 30 1 2 -3 4 -5 32 0
-27 28 29 30 1 2 -3 -4 5 32 0
-27 28 29 30 1 2 -3 -4 -5 32 0
-27 28 29 30 1 -2 3 4 5 32 0
-27 28 29 30 1 -2 3 4 -5 32 0
-27 28 29 30 1 -2 3 -4 5 32 0
-27 28 29 30 1 -2 3 -4 -5 32 0
-27 28 29 30 1 -2 -3 4 5 32 0
-27 28 29 30 1 -2 -3 4 -5 32 0
-27 28 29 30 1 -2 -3 -4 5 32 0
-27 28 29 30 1 -2 -3 -4 -5 32 0
-27 28 29 30 -1 2 3 4 5 32 0
-27 28 29 30 -1 2 3 4 -5 32 0
-27 28 29 30 -1 2 3 -4 5 32 0
-27 28 29 30 -1 2 3 -4 -5 70 0
-27 28 29 30 -1 2 -3 4 5 32 0
-27 28 29 30 -1 2 -3 4 -5 32 0
-27 28 29 -30 1 2 3 4 5 32 0
-27 28 29 -30 1 2 3 4 -5 32 0
-27 28 29 -30 1 2 3 -4 5 32 0
-27 28 29 -30 1 2 3 -4 -5 32 0
-27 28 29 -30 1 2 -3 4 5 32 0
-27 28 29 -30 1 2 -3 4 -5 32 0
-27 28 29 -30 1 2 -3 -4 5 32 0
-27 28 29 -30 1 2 -3 -4 -5 32 0
-27 28 29 -30 1 -2 3 4 5 32 0
-27 28 29 -30 1 -2 3 4 -5 32 0
-27 28 29 -30 1 -2 3 -4 5 32 0
-27 28 29 -30 1 -2 3 -4 -5 32 0
-27 28 29 -30 1 -2 -3 4 5 32 0
-27 28 29 -30 1 -2 -3 4 -5 32 0
-27 28 29 -30 1 -2 -3 -4 5 32 0
-27 28 29 -30 1 -2 -3 -4 -5 32 0
-27 28 29 -30 -1 2 3 4 5 32 0
-27 28 29 -30 -1 2 3 4 -5 32 0
-27 28 29 -30 -1 2 3 -4 5 32 0
-27 28 29 -30 -1 2 3 -4 -5 32 0
-27 28 29 -30 -1 2 -3 4 5 45 0
-27 28 29 -30 -1 2 -3 4 -5 32 0
-27 28 -29 30 1 2 3 4 5 32 0
-27 28 -29 30 1 2 3 4 -5 32 0
-27 28 -29 30 1 2 3 -4 5 32 0
-27 28 -29 30 1 2 3 -4 -5 32 0
-27 28 -29 30 1 2 -3 4 5 32 0
-27 28 -29 30 1 2 -3 4 -5 32 0
-27 28 -29 30 1 2 -3 -4 5 32 0
-27 28 -29 30 1 2 -3 -4 -5 32 0
-27 28 -29 30 1 -2 3 4 5 32 0
-27 28 -29 30 1 -2 3 4 -5 32 0
-27 28 -29 30 1 -2 3 -4 5 32 0
-27 28 -29 30 1 -2 3 -4 -5 32 0
-27 28 -29 30 1 -2 -3 4 5 32 0
-27 28 -29 30 1 -2 -3 4 -5 32 0
-27 28 -29 30 1 -2 -3 -4 5 32 0
-27 28 -29 30 1 -2 -3 -4 -5 32 0
-27 28 -29 30 -1 2 3 4 5 32 0
-27 28 -29 30 -1 2 3 4 -5 32 0
-27 28 -29 30 -1 2 3 -4 5 32 0
-27 28 -29 30 -1 2 3 -4 -5 32 0
-27 28 -29 30 -1 2 -3 4 5 32 0
-27 28 -29 30 -1 2 -3 4 -5 45 0
